
Gurobi 10.0.1 (win64) logging started Thu May 18 16:25:12 2023

Set parameter LogFile to value "results/log/Fattahi_setup_05_modificated.log"
Gurobi Optimizer version 10.0.1 build v10.0.1rc0 (win64)

CPU model: AMD Ryzen 7 3700X 8-Core Processor, instruction set [SSE2|AVX|AVX2]
Thread count: 8 physical cores, 16 logical processors, using up to 16 threads

Optimize a model with 116 rows, 61 columns and 457 nonzeros
Model fingerprint: 0x6fac90a0
Variable types: 0 continuous, 61 integer (48 binary)
Coefficient statistics:
  Matrix range     [1e+00, 7e+04]
  Objective range  [1e+00, 1e+00]
  Bounds range     [1e+00, 1e+00]
  RHS range        [1e+00, 2e+05]
Presolve removed 27 rows and 27 columns
Presolve time: 0.00s
Presolved: 89 rows, 34 columns, 403 nonzeros
Variable types: 0 continuous, 34 integer (22 binary)
Found heuristic solution: objective 536.0000000
Found heuristic solution: objective 459.0000000

Root relaxation: objective 2.230000e+02, 12 iterations, 0.00 seconds (0.00 work units)

    Nodes    |    Current Node    |     Objective Bounds      |     Work
 Expl Unexpl |  Obj  Depth IntInf | Incumbent    BestBd   Gap | It/Node Time

     0     0  223.00000    0    4  459.00000  223.00000  51.4%     -    0s
H    0     0                     303.0000000  223.00000  26.4%     -    0s
     0     0  235.00000    0   12  303.00000  235.00000  22.4%     -    0s
     0     0  235.00000    0   14  303.00000  235.00000  22.4%     -    0s
     0     0  237.00811    0   10  303.00000  237.00811  21.8%     -    0s
     0     0  242.32927    0    8  303.00000  242.32927  20.0%     -    0s
     0     0  242.32927    0   10  303.00000  242.32927  20.0%     -    0s
     0     0  252.00000    0   15  303.00000  252.00000  16.8%     -    0s
     0     0  252.00000    0   14  303.00000  252.00000  16.8%     -    0s
     0     0  252.00000    0   14  303.00000  252.00000  16.8%     -    0s
     0     0  273.00000    0   12  303.00000  273.00000  9.90%     -    0s
     0     0  280.00000    0   11  303.00000  280.00000  7.59%     -    0s
     0     2  280.00000    0   11  303.00000  280.00000  7.59%     -    0s

Cutting planes:
  Learned: 4
  Cover: 1
  Implied bound: 2
  MIR: 6
  Flow cover: 5

Explored 96 nodes (477 simplex iterations) in 0.04 seconds (0.01 work units)
Thread count was 16 (of 16 available processors)

Solution count 3: 303 459 536 

Optimal solution found (tolerance 1.00e-04)
Best objective 3.030000000000e+02, best bound 3.030000000000e+02, gap 0.0000%
Warning: variable name "y[job:0, stage:0, machine:1]" has a space
Warning: constraint name "precedence between 0,1 to 0,0 if x_[j,l,h,z,i]=1" has a space
Warning: to let Gurobi read it back, use rlp format
Warning: variable name "y[job:0, stage:0, machine:1]" has a space
Warning: constraint name "precedence between 0,1 to 0,0 if x_[j,l,h,z,i]=1" has a space
Warning: default variable names used to write mps file
Warning: default constraint names used to write mps file
Warning: variable name "y[job:0, stage:0, machine:1]" has a space
Warning: default variable names used to write solution file
